15-8/15-8.lp
max: z;

z + 3x1 + 2x2 + 0x3 - 1x4 + 5x5 - 2x6	<= 0;
z - 2x1 - 3x2 + 2x3 + 4x4 + 0x5 + 4x6	<= 0;
z + 5x1 - 3x2 + 4x3 + 0x4 + 4x5 + 7x6	<= 0;
z + 1x1 + 3x2 + 3x3 + 2x4 - 6x5 + 5x6	<= 0;

x1 + x2 + x3 + x4 + x5 + x6 <= 1;

x1 >=0;
x2 >=0;
x3 >=0;
x4 >=0;
x5 >=0;
x6 >=0;

z >= 0;
